c status 11 1469385796850
c status 10 1469385796850
c status 9 1469385796853
s td 12 9 21
b 1 16 13 18 3 4
b 2 13 1 18 21 20 3 4
b 3 1 18 17 19 21 20 3 4 6
b 4 15 2 17 21 3
b 5 2 18 17 19 21 20 3
b 6 18 17 19 21 20 5 3 4 6
b 7 8 11 12 19 21
b 8 11 7 12 19 21 5 3
b 9 7 12 10 19 21 20 5 3 6
b 10 14 9 10 19 5
b 11 9 12 10 19 20 5 3
b 12 12 10 19 21 20 5 3 4 6
1 2
2 3
3 6
6 12
12 9
6 5
12 11
9 8
11 10
5 4
8 7
